(set-info :smt-lib-version 2.6)
(set-logic QF_AX)
(set-info :source |
Benchmarks used in the followin paper:
Big proof engines as little proof engines: new results on rewrite-based satisfiability procedure
Alessandro Armando, Maria Paola Bonacina, Silvio Ranise, Stephan Schulz. 
PDPAR'05
http://www.ai.dist.unige.it/pdpar05/


|)
(set-info :category "crafted")
(set-info :status sat)
(declare-sort Index 0)
(declare-sort Element 0)
(declare-fun a_0 () (Array Index Element))
(declare-fun a_1 () (Array Index Element))
(declare-fun a_10 () (Array Index Element))
(declare-fun a_11 () (Array Index Element))
(declare-fun a_12 () (Array Index Element))
(declare-fun a_13 () (Array Index Element))
(declare-fun a_14 () (Array Index Element))
(declare-fun a_15 () (Array Index Element))
(declare-fun a_16 () (Array Index Element))
(declare-fun a_17 () (Array Index Element))
(declare-fun a_18 () (Array Index Element))
(declare-fun a_19 () (Array Index Element))
(declare-fun a_2 () (Array Index Element))
(declare-fun a_20 () (Array Index Element))
(declare-fun a_21 () (Array Index Element))
(declare-fun a_22 () (Array Index Element))
(declare-fun a_23 () (Array Index Element))
(declare-fun a_24 () (Array Index Element))
(declare-fun a_25 () (Array Index Element))
(declare-fun a_26 () (Array Index Element))
(declare-fun a_27 () (Array Index Element))
(declare-fun a_28 () (Array Index Element))
(declare-fun a_29 () (Array Index Element))
(declare-fun a_3 () (Array Index Element))
(declare-fun a_30 () (Array Index Element))
(declare-fun a_31 () (Array Index Element))
(declare-fun a_32 () (Array Index Element))
(declare-fun a_33 () (Array Index Element))
(declare-fun a_34 () (Array Index Element))
(declare-fun a_35 () (Array Index Element))
(declare-fun a_36 () (Array Index Element))
(declare-fun a_37 () (Array Index Element))
(declare-fun a_38 () (Array Index Element))
(declare-fun a_39 () (Array Index Element))
(declare-fun a_4 () (Array Index Element))
(declare-fun a_5 () (Array Index Element))
(declare-fun a_6 () (Array Index Element))
(declare-fun a_7 () (Array Index Element))
(declare-fun a_8 () (Array Index Element))
(declare-fun a_9 () (Array Index Element))
(declare-fun a1 () (Array Index Element))
(declare-fun e1 () Element)
(declare-fun e10 () Element)
(declare-fun e11 () Element)
(declare-fun e12 () Element)
(declare-fun e13 () Element)
(declare-fun e14 () Element)
(declare-fun e15 () Element)
(declare-fun e16 () Element)
(declare-fun e17 () Element)
(declare-fun e18 () Element)
(declare-fun e19 () Element)
(declare-fun e2 () Element)
(declare-fun e20 () Element)
(declare-fun e3 () Element)
(declare-fun e4 () Element)
(declare-fun e5 () Element)
(declare-fun e6 () Element)
(declare-fun e7 () Element)
(declare-fun e8 () Element)
(declare-fun e9 () Element)
(declare-fun i1 () Index)
(declare-fun i10 () Index)
(declare-fun i11 () Index)
(declare-fun i12 () Index)
(declare-fun i13 () Index)
(declare-fun i14 () Index)
(declare-fun i15 () Index)
(declare-fun i16 () Index)
(declare-fun i17 () Index)
(declare-fun i18 () Index)
(declare-fun i19 () Index)
(declare-fun i2 () Index)
(declare-fun i20 () Index)
(declare-fun i3 () Index)
(declare-fun i4 () Index)
(declare-fun i5 () Index)
(declare-fun i6 () Index)
(declare-fun i7 () Index)
(declare-fun i8 () Index)
(declare-fun i9 () Index)
(assert (= a_0 (store a1 i1 e1)))
(assert (= a_1 (store a_0 i2 e2)))
(assert (= a_10 (store a_9 i11 e11)))
(assert (= a_11 (store a_10 i12 e12)))
(assert (= a_12 (store a_11 i13 e13)))
(assert (= a_13 (store a_12 i14 e14)))
(assert (= a_14 (store a_13 i15 e15)))
(assert (= a_15 (store a_14 i16 e16)))
(assert (= a_16 (store a_15 i17 e17)))
(assert (= a_17 (store a_16 i18 e18)))
(assert (= a_18 (store a_17 i19 e19)))
(assert (= a_19 (store a_18 i1 e1)))
(assert (= a_2 (store a_1 i3 e3)))
(assert (= a_20 (store a1 i3 e3)))
(assert (= a_21 (store a_20 i17 e17)))
(assert (= a_22 (store a_21 i6 e6)))
(assert (= a_23 (store a_22 i9 e9)))
(assert (= a_24 (store a_23 i19 e19)))
(assert (= a_25 (store a_24 i12 e12)))
(assert (= a_26 (store a_25 i18 e18)))
(assert (= a_27 (store a_26 i11 e11)))
(assert (= a_28 (store a_27 i15 e15)))
(assert (= a_29 (store a_28 i2 e2)))
(assert (= a_3 (store a_2 i4 e4)))
(assert (= a_30 (store a_29 i8 e8)))
(assert (= a_31 (store a_30 i7 e7)))
(assert (= a_32 (store a_31 i10 e10)))
(assert (= a_33 (store a_32 i5 e5)))
(assert (= a_34 (store a_33 i4 e4)))
(assert (= a_35 (store a_34 i20 e20)))
(assert (= a_36 (store a_35 i14 e14)))
(assert (= a_37 (store a_36 i13 e13)))
(assert (= a_38 (store a_37 i16 e16)))
(assert (= a_39 (store a_38 i1 e1)))
(assert (= a_4 (store a_3 i5 e5)))
(assert (= a_5 (store a_4 i6 e6)))
(assert (= a_6 (store a_5 i7 e7)))
(assert (= a_7 (store a_6 i8 e8)))
(assert (= a_8 (store a_7 i9 e9)))
(assert (= a_9 (store a_8 i10 e10)))
(assert (not (= i19 i20)))
(assert (not (= i18 i20)))
(assert (not (= i18 i19)))
(assert (not (= i17 i20)))
(assert (not (= i17 i19)))
(assert (not (= i17 i18)))
(assert (not (= i16 i20)))
(assert (not (= i16 i19)))
(assert (not (= i16 i18)))
(assert (not (= i16 i17)))
(assert (not (= i15 i20)))
(assert (not (= i15 i19)))
(assert (not (= i15 i18)))
(assert (not (= i15 i17)))
(assert (not (= i15 i16)))
(assert (not (= i14 i20)))
(assert (not (= i14 i19)))
(assert (not (= i14 i18)))
(assert (not (= i14 i17)))
(assert (not (= i14 i16)))
(assert (not (= i14 i15)))
(assert (not (= i13 i20)))
(assert (not (= i13 i19)))
(assert (not (= i13 i18)))
(assert (not (= i13 i17)))
(assert (not (= i13 i16)))
(assert (not (= i13 i15)))
(assert (not (= i13 i14)))
(assert (not (= i12 i20)))
(assert (not (= i12 i19)))
(assert (not (= i12 i18)))
(assert (not (= i12 i17)))
(assert (not (= i12 i16)))
(assert (not (= i12 i15)))
(assert (not (= i12 i14)))
(assert (not (= i12 i13)))
(assert (not (= i11 i20)))
(assert (not (= i11 i19)))
(assert (not (= i11 i18)))
(assert (not (= i11 i17)))
(assert (not (= i11 i16)))
(assert (not (= i11 i15)))
(assert (not (= i11 i14)))
(assert (not (= i11 i13)))
(assert (not (= i11 i12)))
(assert (not (= i10 i20)))
(assert (not (= i10 i19)))
(assert (not (= i10 i18)))
(assert (not (= i10 i17)))
(assert (not (= i10 i16)))
(assert (not (= i10 i15)))
(assert (not (= i10 i14)))
(assert (not (= i10 i13)))
(assert (not (= i10 i12)))
(assert (not (= i10 i11)))
(assert (not (= i9 i20)))
(assert (not (= i9 i19)))
(assert (not (= i9 i18)))
(assert (not (= i9 i17)))
(assert (not (= i9 i16)))
(assert (not (= i9 i15)))
(assert (not (= i9 i14)))
(assert (not (= i9 i13)))
(assert (not (= i9 i12)))
(assert (not (= i9 i11)))
(assert (not (= i9 i10)))
(assert (not (= i8 i20)))
(assert (not (= i8 i19)))
(assert (not (= i8 i18)))
(assert (not (= i8 i17)))
(assert (not (= i8 i16)))
(assert (not (= i8 i15)))
(assert (not (= i8 i14)))
(assert (not (= i8 i13)))
(assert (not (= i8 i12)))
(assert (not (= i8 i11)))
(assert (not (= i8 i10)))
(assert (not (= i8 i9)))
(assert (not (= i7 i20)))
(assert (not (= i7 i19)))
(assert (not (= i7 i18)))
(assert (not (= i7 i17)))
(assert (not (= i7 i16)))
(assert (not (= i7 i15)))
(assert (not (= i7 i14)))
(assert (not (= i7 i13)))
(assert (not (= i7 i12)))
(assert (not (= i7 i11)))
(assert (not (= i7 i10)))
(assert (not (= i7 i9)))
(assert (not (= i7 i8)))
(assert (not (= i6 i20)))
(assert (not (= i6 i19)))
(assert (not (= i6 i18)))
(assert (not (= i6 i17)))
(assert (not (= i6 i16)))
(assert (not (= i6 i15)))
(assert (not (= i6 i14)))
(assert (not (= i6 i13)))
(assert (not (= i6 i12)))
(assert (not (= i6 i11)))
(assert (not (= i6 i10)))
(assert (not (= i6 i9)))
(assert (not (= i6 i8)))
(assert (not (= i6 i7)))
(assert (not (= i5 i20)))
(assert (not (= i5 i19)))
(assert (not (= i5 i18)))
(assert (not (= i5 i17)))
(assert (not (= i5 i16)))
(assert (not (= i5 i15)))
(assert (not (= i5 i14)))
(assert (not (= i5 i13)))
(assert (not (= i5 i12)))
(assert (not (= i5 i11)))
(assert (not (= i5 i10)))
(assert (not (= i5 i9)))
(assert (not (= i5 i8)))
(assert (not (= i5 i7)))
(assert (not (= i5 i6)))
(assert (not (= i4 i20)))
(assert (not (= i4 i19)))
(assert (not (= i4 i18)))
(assert (not (= i4 i17)))
(assert (not (= i4 i16)))
(assert (not (= i4 i15)))
(assert (not (= i4 i14)))
(assert (not (= i4 i13)))
(assert (not (= i4 i12)))
(assert (not (= i4 i11)))
(assert (not (= i4 i10)))
(assert (not (= i4 i9)))
(assert (not (= i4 i8)))
(assert (not (= i4 i7)))
(assert (not (= i4 i6)))
(assert (not (= i4 i5)))
(assert (not (= i3 i20)))
(assert (not (= i3 i19)))
(assert (not (= i3 i18)))
(assert (not (= i3 i17)))
(assert (not (= i3 i16)))
(assert (not (= i3 i15)))
(assert (not (= i3 i14)))
(assert (not (= i3 i13)))
(assert (not (= i3 i12)))
(assert (not (= i3 i11)))
(assert (not (= i3 i10)))
(assert (not (= i3 i9)))
(assert (not (= i3 i8)))
(assert (not (= i3 i7)))
(assert (not (= i3 i6)))
(assert (not (= i3 i5)))
(assert (not (= i3 i4)))
(assert (not (= i2 i20)))
(assert (not (= i2 i19)))
(assert (not (= i2 i18)))
(assert (not (= i2 i17)))
(assert (not (= i2 i16)))
(assert (not (= i2 i15)))
(assert (not (= i2 i14)))
(assert (not (= i2 i13)))
(assert (not (= i2 i12)))
(assert (not (= i2 i11)))
(assert (not (= i2 i10)))
(assert (not (= i2 i9)))
(assert (not (= i2 i8)))
(assert (not (= i2 i7)))
(assert (not (= i2 i6)))
(assert (not (= i2 i5)))
(assert (not (= i2 i4)))
(assert (not (= i2 i3)))
(assert (not (= i1 i20)))
(assert (not (= i1 i19)))
(assert (not (= i1 i18)))
(assert (not (= i1 i17)))
(assert (not (= i1 i16)))
(assert (not (= i1 i15)))
(assert (not (= i1 i14)))
(assert (not (= i1 i13)))
(assert (not (= i1 i12)))
(assert (not (= i1 i11)))
(assert (not (= i1 i10)))
(assert (not (= i1 i9)))
(assert (not (= i1 i8)))
(assert (not (= i1 i7)))
(assert (not (= i1 i6)))
(assert (not (= i1 i5)))
(assert (not (= i1 i4)))
(assert (not (= i1 i3)))
(assert (not (= i1 i2)))
(assert (not (= a_19 a_39)))
(check-sat)
(exit)
